134844
1,87,44,66,59,10,27,28,58,76,24,102,74,89,93,12,92,23,80,57,83,34,9,106,8,97,55,29,30,5,52,65,31,98,13,88,69,81,42,19,99,68,50,26,14,47,61,103,4,15,75,35,63,32,7,53,84,33,82,51,100,72,45,25,86,46,77,6,40,56,20,16,64,90,17,21,22,62,2,73,48,85,36,71,54,95,67,41,11,104,38,105,101,3,78,94,70,37,39,49,18,96,60,91,79,43,1